NAME : in_house_7_8
TYPE : TSP
DIMENSION : 7
EDGE_WEIGHT_TYPE : EXPLICIT
EDGE_WEIGHT_FORMAT : UPPER_ROW
COMMENT : INVERSION_SHIFT=6
EDGE_WEIGHT_SECTION
29
48
33
9
44
25
4
3
35
10
29
16
12
6
49
5
37
29
4
1
25
